PROBLEM NAME: eil51_n16
KNAPSACK DATA TYPE: uncorrelated
DIMENSION: 16
NUMBER OF ITEMS: 15
CAPACITY OF KNAPSACK: 4396
MIN SPEED: 0.1
MAX SPEED: 1
RENTING RATIO: 8.23
EDGE_WEIGHT_TYPE: CEIL_2D
NODE_COORD_SECTION	(INDEX, X, Y):
1	49	49
2	20	26
3	31	32
4	5	25
5	8	52
6	30	48
7	58	48
8	37	69
9	38	46
10	46	10
11	10	17
12	21	10
13	32	39
14	25	55
15	56	37
16	30	40
ITEMS SECTION	(INDEX, PROFIT, WEIGHT, ASSIGNED NODE NUMBER):
1	928	539	8
2	813	354	14
3	790	280	5
4	773	586	6
5	682	337	9
6	652	486	16
7	488	354	13
8	477	851	3
9	393	17	2
10	353	938	4
11	264	58	11
12	245	675	12
13	242	954	10
14	225	696	15
15	111	936	7
